<number of tasks>
58

<cycle time>
58

<task times>
1 10
2 53
3 41
4 36
5 35
6 17
7 34
8 23
9 14
10 52
11 33
12 34
13 12
14 52
15 12
16 33
17 44
18 7
19 15
20 13
21 29
22 37
23 43
24 23
25 24
26 9
27 16
28 12
29 26
30 22
31 51
32 47
33 34
34 23
35 12
36 52
37 12
38 33
39 44
40 7
41 15
42 13
43 29
44 37
45 43
46 23
47 24
48 9
49 16
50 12
51 26
52 12
53 52
54 12
55 33
56 44
57 7
58 15

<precedence relations>
1,9
2,25
3,21
3,22
4,10
5,36
6,23
6,24
7,43
8,44
9,11
11,13
11,14
11,15
12,17
13,17
14,17
15,17
16,18
17,20
18,19
19,23
20,21
20,25
21,26
21,44
22,27
23,31
24,31
25,38
26,29
27,30
28,32
28,33
29,31
30,34
31,36
32,45
33,35
34,36
35,43
36,37
36,38
37,39
37,40
37,41
38,52
39,43
40,43
41,42
42,43
43,45
44,45
45,46
45,48
45,49
46,47
46,50
47,51
48,55
49,58
50,58
51,52
52,53
53,54
54,55
54,56
55,57
56,57
57,58

<setup times forward>
1,2:2
1,3:2
1,4:3
1,5:2
1,6:2
1,7:1
1,8:1
1,10:3
1,16:1
1,18:1
1,19:1
1,22:1
1,23:2
1,24:3
1,28:1
1,30:3
1,32:1
1,33:2
1,34:2
1,35:2
2,1:2
2,4:5
2,7:3
2,8:3
2,9:2
2,10:5
2,11:1
2,12:2
2,13:1
2,14:2
2,15:4
2,16:3
2,17:1
2,18:1
2,19:3
2,20:3
2,21:3
2,22:3
2,23:4
2,24:5
2,25:3
2,26:5
2,27:2
2,28:1
2,29:5
2,30:5
2,31:1
2,32:1
2,36:1
2,41:4
2,42:4
2,43:4
2,44:2
2,45:1
2,46:3
2,47:3
2,48:3
2,49:3
2,50:4
2,51:4
3,1:2
3,4:5
3,7:3
3,8:3
3,9:2
3,10:5
3,11:1
3,12:2
3,13:1
3,14:2
3,15:4
3,16:3
3,17:1
3,18:1
3,19:3
3,20:3
3,21:3
3,22:3
3,23:4
3,24:5
3,25:3
3,28:1
3,32:1
4,1:3
4,2:5
4,3:5
4,5:5
4,6:5
4,7:2
4,8:2
4,9:3
4,11:4
4,12:3
4,13:4
4,14:3
4,15:1
4,16:2
4,17:4
4,18:4
4,19:2
4,20:2
4,21:2
4,22:2
4,23:1
4,25:2
4,27:3
4,28:4
4,31:4
4,32:4
4,33:5
4,34:5
4,35:5
4,36:4
4,37:5
4,38:2
4,39:5
4,40:5
4,41:1
4,42:1
4,43:1
4,44:3
4,45:4
4,46:2
4,47:2
4,48:2
4,49:2
4,50:1
4,51:1
4,52:1
4,54:4
4,56:4
5,1:2
5,4:5
5,7:3
5,8:3
5,9:2
5,10:5
5,11:1
5,12:2
5,13:1
5,14:2
5,15:4
5,16:3
5,17:1
5,18:1
5,19:3
5,20:3
5,21:3
5,22:3
5,23:4
5,24:5
5,25:3
5,26:5
5,27:2
5,28:1
5,29:5
5,30:5
5,31:1
5,32:1
5,36:1
5,44:2
6,1:2
6,4:5
6,7:3
6,8:3
6,9:2
6,10:5
6,11:1
6,12:2
6,13:1
6,14:2
6,15:4
6,16:3
6,17:1
6,18:1
6,19:3
6,20:3
6,21:3
6,22:3
6,23:4
6,24:5
6,25:3
6,26:5
6,27:2
6,28:1
6,29:5
6,30:5
6,32:1
6,44:2
7,1:1
7,2:3
7,3:3
7,4:2
7,5:3
7,6:3
7,9:1
7,10:2
7,11:2
7,12:1
7,13:2
7,14:1
7,15:1
7,17:2
7,18:2
7,23:1
7,24:2
7,26:2
7,27:1
7,28:2
7,29:2
7,30:2
7,31:2
7,32:2
7,33:3
7,34:3
7,35:3
7,36:2
7,37:3
7,39:3
7,40:3
7,41:1
7,42:1
7,43:1
7,44:1
8,1:1
8,2:3
8,3:3
8,4:2
8,5:3
8,6:3
8,9:1
8,10:2
8,11:2
8,12:1
8,13:2
8,14:1
8,15:1
8,17:2
8,18:2
8,23:1
8,24:2
8,26:2
8,27:1
8,28:2
8,29:2
8,30:2
8,31:2
8,32:2
8,33:3
8,34:3
8,35:3
8,36:2
8,37:3
8,39:3
8,40:3
8,41:1
8,42:1
8,43:1
8,44:1
9,2:2
9,3:2
9,4:3
9,5:2
9,6:2
9,7:1
9,8:1
9,10:3
9,11:1
9,16:1
9,18:1
9,19:1
9,22:1
9,23:2
9,24:3
9,28:1
9,30:3
9,32:1
9,33:2
9,34:2
9,35:2
10,1:3
10,2:5
10,3:5
10,5:5
10,6:5
10,7:2
10,8:2
10,9:3
10,11:4
10,12:3
10,13:4
10,14:3
10,15:1
10,16:2
10,17:4
10,18:4
10,19:2
10,20:2
10,21:2
10,22:2
10,23:1
10,25:2
10,27:3
10,28:4
10,31:4
10,32:4
10,33:5
10,34:5
10,35:5
10,36:4
10,37:5
10,38:2
10,39:5
10,40:5
10,41:1
10,42:1
10,43:1
10,44:3
10,45:4
10,46:2
10,47:2
10,48:2
10,49:2
10,50:1
10,51:1
10,52:1
10,54:4
10,56:4
11,2:1
11,3:1
11,4:4
11,5:1
11,6:1
11,7:2
11,8:2
11,10:4
11,12:1
11,14:1
11,15:3
11,16:2
11,19:2
11,22:2
11,23:3
11,24:4
11,27:1
11,30:4
11,33:1
11,34:1
11,35:1
12,2:2
12,3:2
12,4:3
12,5:2
12,6:2
12,7:1
12,8:1
12,10:3
12,11:1
12,13:1
12,15:2
12,16:1
12,17:1
12,18:1
12,19:1
12,22:1
12,23:2
12,24:3
12,28:1
12,30:3
12,32:1
12,33:2
12,34:2
12,35:2
13,2:1
13,3:1
13,4:4
13,5:1
13,6:1
13,7:2
13,8:2
13,10:4
13,12:1
13,14:1
13,15:3
13,16:2
13,19:2
13,22:2
13,23:3
13,24:4
13,27:1
13,30:4
13,33:1
13,34:1
13,35:1
14,2:2
14,3:2
14,4:3
14,5:2
14,6:2
14,7:1
14,8:1
14,10:3
14,13:1
14,15:2
14,16:1
14,17:1
14,18:1
14,19:1
14,22:1
14,23:2
14,24:3
14,28:1
14,30:3
14,32:1
14,33:2
14,34:2
14,35:2
15,2:4
15,3:4
15,4:1
15,5:4
15,6:4
15,7:1
15,8:1
15,10:1
15,12:2
15,13:3
15,14:2
15,16:1
15,17:3
15,18:3
15,19:1
15,22:1
15,24:1
15,27:2
15,28:3
15,30:1
15,32:3
15,33:4
15,34:4
15,35:4
16,1:1
16,2:3
16,3:3
16,4:2
16,5:3
16,6:3
16,9:1
16,10:2
16,11:2
16,12:1
16,13:2
16,14:1
16,15:1
16,17:2
16,18:2
16,24:2
16,26:2
16,27:1
16,28:2
16,29:2
16,30:2
16,32:2
16,33:3
16,34:3
16,35:3
16,44:1
17,2:1
17,3:1
17,4:4
17,5:1
17,6:1
17,7:2
17,8:2
17,10:4
17,16:2
17,19:2
17,20:2
17,22:2
17,23:3
17,24:4
17,27:1
17,30:4
17,33:1
17,34:1
17,35:1
18,1:1
18,2:1
18,3:1
18,4:4
18,5:1
18,6:1
18,7:2
18,8:2
18,9:1
18,10:4
18,12:1
18,14:1
18,15:3
18,19:2
18,20:2
18,21:2
18,22:2
18,24:4
18,25:2
18,26:4
18,27:1
18,29:4
18,30:4
18,33:1
18,34:1
18,35:1
18,44:1
19,1:1
19,2:3
19,3:3
19,4:2
19,5:3
19,6:3
19,9:1
19,10:2
19,11:2
19,12:1
19,13:2
19,14:1
19,15:1
19,17:2
19,23:1
19,24:2
19,26:2
19,27:1
19,28:2
19,29:2
19,30:2
19,32:2
19,33:3
19,34:3
19,35:3
19,44:1
20,2:3
20,3:3
20,4:2
20,5:3
20,6:3
20,10:2
20,18:2
20,23:1
20,24:2
20,27:1
20,28:2
20,30:2
20,32:2
20,33:3
20,34:3
20,35:3
21,2:3
21,4:2
21,5:3
21,6:3
21,10:2
21,18:2
21,23:1
21,24:2
21,26:2
21,27:1
21,28:2
21,30:2
21,32:2
21,33:3
21,34:3
21,35:3
21,44:1
22,1:1
22,2:3
22,4:2
22,5:3
22,6:3
22,9:1
22,10:2
22,11:2
22,12:1
22,13:2
22,14:1
22,15:1
22,17:2
22,18:2
22,23:1
22,24:2
22,26:2
22,27:1
22,28:2
22,29:2
22,31:2
22,32:2
22,33:3
22,35:3
22,44:1
23,1:2
23,2:4
23,3:4
23,4:1
23,5:4
23,7:1
23,8:1
23,9:2
23,10:1
23,11:3
23,12:2
23,13:3
23,14:2
23,17:3
23,20:1
23,21:1
23,22:1
23,24:1
23,25:1
23,26:1
23,27:2
23,28:3
23,29:1
23,30:1
23,31:3
23,32:3
23,33:4
23,34:4
23,35:4
23,44:2
24,1:3
24,2:5
24,3:5
24,5:5
24,7:2
24,8:2
24,9:3
24,11:4
24,12:3
24,13:4
24,14:3
24,15:1
24,16:2
24,17:4
24,18:4
24,19:2
24,20:2
24,21:2
24,22:2
24,23:1
24,25:2
24,27:3
24,28:4
24,31:4
24,32:4
24,33:5
24,34:5
24,35:5
24,44:3
25,3:3
25,4:2
25,5:3
25,6:3
25,10:2
25,18:2
25,23:1
25,24:2
25,26:2
25,27:1
25,28:2
25,29:2
25,30:2
25,31:2
25,32:2
25,33:3
25,34:3
25,35:3
25,36:2
25,37:3
25,39:3
25,40:3
25,41:1
25,42:1
25,43:1
25,44:1
25,45:2
25,50:1
25,51:1
26,2:5
26,5:5
26,6:5
26,7:2
26,8:2
26,16:2
26,18:4
26,19:2
26,22:2
26,23:1
26,25:2
26,27:3
26,28:4
26,32:4
26,33:5
26,34:5
26,35:5
26,44:3
27,2:2
27,4:3
27,5:2
27,6:2
27,7:1
27,8:1
27,10:3
27,11:1
27,13:1
27,15:2
27,16:1
27,17:1
27,18:1
27,19:1
27,20:1
27,21:1
27,23:2
27,24:3
27,25:1
27,26:3
27,28:1
27,29:3
27,30:3
27,31:1
27,32:1
27,33:2
27,35:2
28,1:1
28,2:1
28,3:1
28,4:4
28,5:1
28,6:1
28,7:2
28,8:2
28,9:1
28,10:4
28,12:1
28,14:1
28,15:3
28,16:2
28,19:2
28,20:2
28,21:2
28,22:2
28,23:3
28,24:4
28,25:2
28,26:4
28,27:1
28,29:4
28,30:4
28,33:1
28,34:1
28,37:1
28,38:2
28,39:1
28,40:1
28,41:3
28,42:3
28,44:1
29,2:5
29,5:5
29,6:5
29,7:2
29,8:2
29,16:2
29,18:4
29,19:2
29,22:2
29,23:1
29,25:2
29,27:3
29,28:4
29,31:4
29,32:4
29,33:5
29,34:5
29,35:5
29,44:3
30,1:3
30,2:5
30,5:5
30,6:5
30,7:2
30,8:2
30,9:3
30,11:4
30,12:3
30,13:4
30,14:3
30,15:1
30,16:2
30,17:4
30,18:4
30,19:2
30,20:2
30,21:2
30,23:1
30,25:2
30,28:4
30,31:4
30,32:4
30,33:5
30,34:5
30,35:5
30,44:3
31,2:1
31,4:4
31,5:1
31,7:2
31,8:2
31,10:4
31,22:2
31,25:2
31,27:1
31,30:4
31,33:1
31,34:1
31,35:1
31,44:1
32,1:1
32,2:1
32,3:1
32,4:4
32,5:1
32,6:1
32,7:2
32,8:2
32,9:1
32,10:4
32,12:1
32,14:1
32,15:3
32,16:2
32,19:2
32,20:2
32,21:2
32,22:2
32,23:3
32,24:4
32,25:2
32,26:4
32,27:1
32,29:4
32,30:4
32,33:1
32,34:1
32,35:1
32,37:1
32,38:2
32,39:1
32,40:1
32,41:3
32,42:3
32,43:3
32,44:1
33,1:2
33,4:5
33,7:3
33,8:3
33,9:2
33,10:5
33,11:1
33,12:2
33,13:1
33,14:2
33,15:4
33,16:3
33,17:1
33,18:1
33,19:3
33,20:3
33,21:3
33,22:3
33,23:4
33,24:5
33,25:3
33,26:5
33,27:2
33,29:5
33,30:5
33,31:1
33,32:1
33,36:1
33,38:3
33,41:4
33,42:4
33,44:2
34,1:2
34,4:5
34,7:3
34,8:3
34,9:2
34,10:5
34,11:1
34,12:2
34,13:1
34,14:2
34,15:4
34,16:3
34,17:1
34,18:1
34,19:3
34,20:3
34,21:3
34,23:4
34,24:5
34,25:3
34,26:5
34,28:1
34,29:5
34,31:1
34,32:1
34,36:1
34,44:2
35,1:2
35,4:5
35,7:3
35,8:3
35,9:2
35,10:5
35,11:1
35,12:2
35,13:1
35,14:2
35,15:4
35,16:3
35,17:1
35,18:1
35,19:3
35,20:3
35,21:3
35,22:3
35,23:4
35,24:5
35,25:3
35,26:5
35,27:2
35,29:5
35,30:5
35,31:1
35,32:1
35,36:1
35,38:3
35,41:4
35,42:4
35,43:4
35,44:2
36,2:1
36,4:4
36,7:2
36,8:2
36,10:4
36,25:2
36,33:1
36,35:1
36,37:1
36,38:2
36,44:1
37,4:5
37,7:3
37,8:3
37,10:5
37,25:3
37,28:1
37,32:1
37,38:3
37,41:4
37,44:2
38,4:2
38,10:2
38,28:2
38,32:2
38,33:3
38,35:3
38,37:3
38,39:3
38,40:3
38,41:1
38,42:1
38,43:1
38,44:1
38,45:2
38,50:1
38,51:1
38,52:1
39,4:5
39,7:3
39,8:3
39,10:5
39,25:3
39,28:1
39,32:1
39,38:3
39,41:4
39,42:4
39,43:4
39,44:2
40,4:5
40,7:3
40,8:3
40,10:5
40,25:3
40,28:1
40,32:1
40,38:3
40,41:4
40,42:4
40,43:4
40,44:2
41,2:4
41,4:1
41,7:1
41,8:1
41,10:1
41,25:1
41,28:3
41,32:3
41,33:4
41,35:4
41,38:1
41,39:4
41,40:4
41,44:2
42,2:4
42,4:1
42,7:1
42,8:1
42,10:1
42,25:1
42,28:3
42,32:3
42,33:4
42,35:4
42,38:1
42,39:4
42,40:4
42,44:2
43,2:4
43,4:1
43,8:1
43,10:1
43,25:1
43,32:3
43,38:1
43,44:2
43,45:3
44,2:2
44,4:3
44,5:2
44,6:2
44,7:1
44,10:3
44,16:1
44,18:1
44,19:1
44,22:1
44,23:2
44,24:3
44,25:1
44,26:3
44,28:1
44,29:3
44,30:3
44,31:1
44,32:1
44,33:2
44,34:2
44,35:2
44,36:1
44,37:2
44,38:1
44,39:2
44,40:2
44,41:2
44,42:2
44,43:2
44,45:1
45,2:1
45,4:4
45,10:4
45,25:2
45,38:2
45,46:2
45,48:2
45,49:2
46,2:3
46,4:2
46,10:2
46,50:1
47,2:3
47,4:2
47,10:2
47,50:1
47,51:1
48,2:3
48,4:2
48,10:2
48,50:1
48,51:1
48,52:1
48,53:2
48,54:2
48,55:2
48,56:2
49,2:3
49,4:2
49,10:2
49,50:1
49,51:1
49,52:1
49,53:2
49,54:2
49,55:2
49,56:2
49,57:2
49,58:2
50,2:4
50,4:1
50,10:1
50,25:1
50,38:1
50,47:1
50,48:1
50,49:1
50,53:1
50,54:3
50,55:1
50,56:3
50,57:1
50,58:1
51,2:4
51,4:1
51,10:1
51,25:1
51,38:1
51,48:1
51,49:1
52,4:1
52,10:1
52,48:1
52,49:1
52,53:1
53,48:2
53,49:2
53,50:1
53,54:4
54,4:4
54,10:4
54,48:2
54,49:2
54,50:3
54,55:4
55,49:2
55,50:1
55,56:4
56,4:4
56,10:4
56,48:2
56,49:2
56,50:3
56,55:4
56,57:4
57,49:2
57,50:1

<setup times backward>
1,4:3
1,7:1
1,8:1
1,10:3
1,16:1
1,19:1
1,22:1
1,23:2
1,24:3
1,30:3
2,1:2
2,4:5
2,7:3
2,8:3
2,9:2
2,10:5
2,11:1
2,12:2
2,13:1
2,14:2
2,15:4
2,16:3
2,17:1
2,18:1
2,19:3
2,20:3
2,21:3
2,22:3
2,23:4
2,24:5
2,26:5
2,27:2
2,28:1
2,29:5
2,30:5
2,31:1
2,32:1
2,36:1
2,41:4
2,42:4
2,43:4
2,44:2
2,45:1
2,46:3
2,47:3
2,48:3
2,49:3
2,50:4
2,51:4
3,1:2
3,4:5
3,7:3
3,8:3
3,9:2
3,10:5
3,11:1
3,12:2
3,13:1
3,14:2
3,15:4
3,16:3
3,17:1
3,18:1
3,19:3
3,20:3
3,23:4
3,24:5
3,25:3
3,28:1
3,32:1
5,1:2
5,4:5
5,7:3
5,8:3
5,9:2
5,10:5
5,11:1
5,12:2
5,13:1
5,14:2
5,15:4
5,16:3
5,17:1
5,18:1
5,19:3
5,20:3
5,21:3
5,22:3
5,23:4
5,24:5
5,25:3
5,26:5
5,27:2
5,28:1
5,29:5
5,30:5
5,31:1
5,32:1
5,44:2
6,1:2
6,4:5
6,7:3
6,8:3
6,9:2
6,10:5
6,11:1
6,12:2
6,13:1
6,14:2
6,15:4
6,16:3
6,17:1
6,18:1
6,19:3
6,20:3
6,21:3
6,22:3
6,25:3
6,26:5
6,27:2
6,28:1
6,29:5
6,30:5
6,32:1
6,44:2
7,4:2
7,10:2
7,15:1
7,23:1
7,24:2
7,26:2
7,29:2
7,30:2
7,41:1
7,42:1
8,4:2
8,10:2
8,15:1
8,23:1
8,24:2
8,26:2
8,29:2
8,30:2
8,41:1
8,42:1
8,43:1
9,4:3
9,7:1
9,8:1
9,10:3
9,16:1
9,19:1
9,22:1
9,23:2
9,24:3
9,30:3
11,1:1
11,4:4
11,7:2
11,8:2
11,9:1
11,10:4
11,12:1
11,16:2
11,19:2
11,22:2
11,23:3
11,24:4
11,27:1
11,30:4
12,4:3
12,7:1
12,8:1
12,10:3
12,15:2
12,16:1
12,19:1
12,22:1
12,23:2
12,24:3
12,30:3
13,1:1
13,4:4
13,7:2
13,8:2
13,9:1
13,10:4
13,12:1
13,14:1
13,15:3
13,16:2
13,19:2
13,22:2
13,23:3
13,24:4
13,27:1
13,30:4
14,4:3
14,7:1
14,8:1
14,10:3
14,15:2
14,16:1
14,19:1
14,22:1
14,23:2
14,24:3
14,30:3
15,4:1
15,10:1
15,24:1
15,30:1
16,4:2
16,10:2
16,15:1
16,24:2
16,26:2
16,29:2
16,30:2
17,1:1
17,4:4
17,7:2
17,8:2
17,9:1
17,10:4
17,12:1
17,14:1
17,15:3
17,16:2
17,19:2
17,22:2
17,23:3
17,24:4
17,27:1
17,30:4
18,1:1
18,4:4
18,7:2
18,8:2
18,9:1
18,10:4
18,12:1
18,14:1
18,15:3
18,16:2
18,20:2
18,21:2
18,22:2
18,24:4
18,25:2
18,26:4
18,27:1
18,29:4
18,30:4
18,44:1
19,4:2
19,10:2
19,15:1
19,24:2
19,26:2
19,29:2
19,30:2
20,4:2
20,10:2
20,15:1
20,23:1
20,24:2
20,30:2
21,4:2
21,10:2
21,15:1
21,23:1
21,24:2
21,30:2
22,4:2
22,10:2
22,15:1
22,23:1
22,24:2
22,26:2
22,29:2
23,4:1
23,10:1
23,24:1
23,26:1
23,29:1
23,30:1
25,4:2
25,10:2
25,15:1
25,23:1
25,24:2
25,26:2
25,29:2
25,30:2
25,41:1
25,42:1
25,43:1
25,50:1
25,51:1
27,4:3
27,7:1
27,8:1
27,10:3
27,15:2
27,16:1
27,19:1
27,20:1
27,21:1
27,22:1
27,23:2
27,24:3
27,25:1
27,26:3
27,29:3
28,1:1
28,4:4
28,7:2
28,8:2
28,9:1
28,10:4
28,12:1
28,14:1
28,15:3
28,16:2
28,19:2
28,20:2
28,21:2
28,22:2
28,23:3
28,24:4
28,25:2
28,26:4
28,27:1
28,29:4
28,30:4
28,38:2
28,41:3
28,42:3
28,44:1
31,1:1
31,4:4
31,7:2
31,8:2
31,9:1
31,10:4
31,12:1
31,14:1
31,15:3
31,16:2
31,19:2
31,20:2
31,21:2
31,22:2
31,23:3
31,24:4
31,25:2
31,26:4
31,27:1
31,29:4
31,30:4
31,44:1
32,1:1
32,4:4
32,7:2
32,8:2
32,9:1
32,10:4
32,12:1
32,14:1
32,15:3
32,16:2
32,19:2
32,20:2
32,21:2
32,22:2
32,23:3
32,24:4
32,25:2
32,26:4
32,27:1
32,29:4
32,30:4
32,38:2
32,41:3
32,42:3
32,43:3
32,44:1
33,1:2
33,4:5
33,7:3
33,8:3
33,9:2
33,10:5
33,11:1
33,12:2
33,13:1
33,14:2
33,15:4
33,16:3
33,17:1
33,18:1
33,19:3
33,20:3
33,21:3
33,22:3
33,23:4
33,24:5
33,25:3
33,26:5
33,27:2
33,28:1
33,29:5
33,30:5
33,31:1
33,32:1
33,36:1
33,38:3
33,41:4
33,42:4
33,44:2
34,1:2
34,4:5
34,7:3
34,8:3
34,9:2
34,10:5
34,11:1
34,12:2
34,13:1
34,14:2
34,15:4
34,16:3
34,17:1
34,18:1
34,19:3
34,20:3
34,21:3
34,22:3
34,23:4
34,24:5
34,25:3
34,26:5
34,27:2
34,28:1
34,29:5
34,30:5
34,31:1
34,32:1
34,44:2
35,1:2
35,4:5
35,7:3
35,8:3
35,9:2
35,10:5
35,11:1
35,12:2
35,13:1
35,14:2
35,15:4
35,16:3
35,17:1
35,18:1
35,19:3
35,20:3
35,21:3
35,22:3
35,23:4
35,24:5
35,25:3
35,26:5
35,27:2
35,28:1
35,29:5
35,30:5
35,31:1
35,32:1
35,36:1
35,38:3
35,41:4
35,42:4
35,44:2
36,1:1
36,4:4
36,7:2
36,8:2
36,9:1
36,10:4
36,12:1
36,14:1
36,15:3
36,16:2
36,19:2
36,20:2
36,21:2
36,22:2
36,23:3
36,24:4
36,25:2
36,26:4
36,27:1
36,29:4
36,30:4
36,44:1
37,1:2
37,4:5
37,7:3
37,8:3
37,9:2
37,10:5
37,11:1
37,12:2
37,13:1
37,14:2
37,15:4
37,16:3
37,17:1
37,18:1
37,19:3
37,20:3
37,21:3
37,22:3
37,23:4
37,24:5
37,25:3
37,26:5
37,27:2
37,28:1
37,29:5
37,30:5
37,31:1
37,32:1
37,36:1
37,38:3
37,44:2
38,4:2
38,10:2
38,15:1
38,23:1
38,24:2
38,26:2
38,29:2
38,30:2
38,41:1
38,42:1
38,43:1
38,50:1
38,51:1
39,1:2
39,4:5
39,7:3
39,8:3
39,9:2
39,10:5
39,11:1
39,12:2
39,13:1
39,14:2
39,15:4
39,16:3
39,17:1
39,18:1
39,19:3
39,20:3
39,21:3
39,22:3
39,23:4
39,24:5
39,25:3
39,26:5
39,27:2
39,28:1
39,29:5
39,30:5
39,31:1
39,32:1
39,36:1
39,38:3
39,41:4
39,42:4
39,44:2
40,1:2
40,4:5
40,7:3
40,8:3
40,9:2
40,10:5
40,11:1
40,12:2
40,13:1
40,14:2
40,15:4
40,16:3
40,17:1
40,18:1
40,19:3
40,20:3
40,21:3
40,22:3
40,23:4
40,24:5
40,25:3
40,26:5
40,27:2
40,28:1
40,29:5
40,30:5
40,31:1
40,32:1
40,36:1
40,38:3
40,41:4
40,42:4
40,44:2
41,4:1
41,10:1
41,24:1
41,26:1
41,29:1
41,30:1
42,4:1
42,10:1
42,24:1
42,26:1
42,29:1
42,30:1
43,4:1
43,10:1
43,24:1
43,26:1
43,29:1
43,30:1
44,4:3
44,7:1
44,8:1
44,10:3
44,15:2
44,16:1
44,19:1
44,20:1
44,21:1
44,22:1
44,23:2
44,24:3
44,25:1
44,26:3
44,29:3
44,30:3
44,38:1
44,41:2
44,42:2
44,43:2
45,1:1
45,4:4
45,7:2
45,8:2
45,9:1
45,10:4
45,12:1
45,14:1
45,15:3
45,16:2
45,19:2
45,20:2
45,21:2
45,22:2
45,23:3
45,24:4
45,25:2
45,26:4
45,27:1
45,29:4
45,30:4
45,38:2
45,41:3
45,42:3
45,43:3
45,44:1
46,4:2
46,10:2
46,15:1
46,23:1
46,24:2
46,26:2
46,29:2
46,30:2
46,41:1
46,42:1
46,43:1
47,4:2
47,10:2
47,15:1
47,23:1
47,24:2
47,26:2
47,29:2
47,30:2
47,41:1
47,42:1
47,43:1
47,50:1
48,4:2
48,10:2
48,15:1
48,23:1
48,24:2
48,26:2
48,29:2
48,30:2
48,41:1
48,42:1
48,43:1
48,50:1
48,51:1
48,52:1
48,53:2
49,4:2
49,10:2
49,15:1
49,23:1
49,24:2
49,26:2
49,29:2
49,30:2
49,41:1
49,42:1
49,43:1
49,50:1
49,51:1
49,52:1
49,53:2
49,55:2
49,57:2
50,4:1
50,10:1
50,24:1
50,26:1
50,29:1
50,30:1
50,53:1
50,55:1
50,57:1
51,4:1
51,10:1
51,24:1
51,26:1
51,29:1
51,30:1
52,4:1
52,10:1
52,24:1
52,26:1
52,29:1
52,30:1
54,1:1
54,4:4
54,7:2
54,8:2
54,9:1
54,10:4
54,12:1
54,14:1
54,15:3
54,16:2
54,19:2
54,20:2
54,21:2
54,22:2
54,23:3
54,24:4
54,25:2
54,26:4
54,27:1
54,29:4
54,30:4
54,38:2
54,41:3
54,42:3
54,43:3
54,44:1
54,46:2
54,47:2
54,48:2
54,49:2
54,50:3
54,51:3
54,52:3
54,53:4
56,1:1
56,4:4
56,7:2
56,8:2
56,9:1
56,10:4
56,12:1
56,14:1
56,15:3
56,16:2
56,19:2
56,20:2
56,21:2
56,22:2
56,23:3
56,24:4
56,25:2
56,26:4
56,27:1
56,29:4
56,30:4
56,38:2
56,41:3
56,42:3
56,43:3
56,44:1
56,46:2
56,47:2
56,48:2
56,49:2
56,50:3
56,51:3
56,52:3
56,53:4
56,55:4

<end>

<optimal SALBP-1 value>
29


<rand seed>
467321153

